20 28
0 2 87
0 3 3
0 5 29
0 15 94
0 17 49
1 2 17
1 5 97
1 7 32
1 9 75
1 19 76
2 11 5
2 13 39
3 4 40
3 8 43
3 12 81
4 7 37
4 12 63
4 16 73
5 9 50
5 18 95
6 10 5
6 13 80
6 14 56
7 9 95
8 10 97
8 14 52
10 11 53
15 16 73
